cliques=[{0,7,9,11,14},{0,1},{2,3,4,5,6},{2,3,4,5,6},{2,3,4,5,6},{2,3,4,5,6},{2,3,4,5,6},{0,7,9,11,14},{7,8},{0,7,9,11,14},{9,10},{0,7,9,11,14},{11,12},{2,13},{0,7,9,11,14},{3,15},{4,16},{5,17}];
nr_cliques=18;
